51
 1 663 13
 2 867 17
 3 153 3
 4 765 15
 5 306 6
 6 714 14
 7 102 2
 8 561 11
 9 867 17
 10 561 11
 11 969 19
 12 612 12
 13 918 18
 14 510 10
 15 867 17
 16 153 3
 17 306 6
 18 1020 20
 19 153 3
 20 459 9
 21 255 5
 22 663 13
 23 510 10
 24 357 7
 25 153 3
 26 765 15
 27 306 6
 28 612 12
 29 867 17
 30 867 17
 31 153 3
 32 306 6
 33 408 8
 34 306 6
 35 1020 20
 36 51 1
 37 255 5
 38 612 12
 39 102 2
 40 357 7
 41 306 6
 42 867 17
 43 816 16
 44 663 13
 45 1020 20
 46 612 12
 47 153 3
 48 867 17
 49 51 1
 50 714 14
 51 408 8
204